results_rootrelaxation/bin012_060_049.srr.sol
solution status: optimal solution found
objective value:                     1.90825688073394
_var693_                            0.100917431192661 	(obj:0)
_var694_                            0.275229357798166 	(obj:0)
_var711_                           0.0275229357798153 	(obj:0)
_var714_                             0.55045871559633 	(obj:0)
_var724_                             0.18348623853211 	(obj:1)
_var728_                            0.211009174311927 	(obj:0)
_var729_                            0.311926605504586 	(obj:0)
_var730_                            0.247706422018349 	(obj:0)
_var737_                            0.623853211009174 	(obj:0)
_var740_                            0.055045871559632 	(obj:1)
_var745_                            0.376146788990826 	(obj:0)
_var749_                            0.238532110091744 	(obj:0)
_var755_                            0.293577981651376 	(obj:0)
_var759_                           0.0275229357798156 	(obj:0)
_var765_                            0.192660550458716 	(obj:0)
_var767_                            0.275229357798166 	(obj:0)
_var768_                            0.449541284403669 	(obj:1)
_var770_                           0.0733944954128457 	(obj:0)
_var772_                            0.275229357798165 	(obj:0)
_var773_                            0.211009174311928 	(obj:0)
_var777_                            0.146788990825687 	(obj:0)
_var778_                            0.275229357798164 	(obj:0)
_var780_                           0.0275229357798156 	(obj:0)
_var786_                             0.24770642201835 	(obj:2)
_var787_                            0.311926605504587 	(obj:0)
_var796_                           0.0825688073394495 	(obj:0)
_var797_                           0.0275229357798155 	(obj:1)
_var799_                           0.0733944954128442 	(obj:0)
_var800_                           0.0733944954128438 	(obj:0)
_var801_                            0.220183486238532 	(obj:1)
_var804_                            0.137614678899081 	(obj:0)
_var810_                            0.357798165137616 	(obj:0)
_var813_                            0.422018348623854 	(obj:0)
_var814_                            0.174311926605504 	(obj:0)
_var815_                            0.128440366972477 	(obj:0)
_var818_                            0.100917431192661 	(obj:0)
_var820_                            0.266055045871559 	(obj:0)
_var828_                            0.266055045871561 	(obj:0)
_var830_                            0.302752293577982 	(obj:0)
_var832_                            0.100917431192661 	(obj:0)
_var838_                            0.146788990825688 	(obj:0)
_var839_                           0.0642201834862388 	(obj:0)
_var840_                            0.146788990825688 	(obj:1)
_var841_                            0.146788990825687 	(obj:0)
_var844_                            0.146788990825688 	(obj:1)
_var849_                            0.238532110091742 	(obj:0)
_var856_                            0.110091743119267 	(obj:0)
_var857_                             0.18348623853211 	(obj:0)
_var858_                           0.0458715596330269 	(obj:0)
_var859_                            0.220183486238533 	(obj:0)
_var860_                            0.146788990825688 	(obj:0)
_var863_                            0.128440366972477 	(obj:0)
_var867_                           0.0642201834862383 	(obj:0)
_var868_                           0.0917431192660549 	(obj:1)
_var876_                           0.0917431192660552 	(obj:1)
_var877_                          0.00917431192660617 	(obj:0)
_var878_                            0.128440366972477 	(obj:0)
_var879_                           0.0458715596330282 	(obj:0)
_var880_                           0.0275229357798159 	(obj:0)
_var881_                           0.0733944954128441 	(obj:0)
