results_rootrelaxation/bin012_060_049.srr.log
SCIP version 8.0.3.5 [precision: 8 byte] [memory: block] [mode: optimized] [LP solver: Soplex 6.0.1.3] [GitHash: 438792519e]
Copyright (c) 2002-2023 Zuse Institute Berlin (ZIB)

External libraries: 
  Readline 8.1         GNU library for command line editing (gnu.org/s/readline)
  Soplex 6.0.1.3       Linear Programming Solver developed at Zuse Institute Berlin (soplex.zib.de) [GitHash: 713be0fe]
  CppAD 20180000.0     Algorithmic Differentiation of C++ algorithms developed by B. Bell (github.com/coin-or/CppAD)
  ZLIB 1.2.11          General purpose compression library by J. Gailly and M. Adler (zlib.net)
  bliss 0.77           Computing Graph Automorphism Groups by T. Junttila and P. Kaski (www.tcs.hut.fi/Software/bliss/)

user parameter file <scip.set> not found - using default parameters

srr/relaxation = TRUE

read problem <instances/bin012_060_049.srr>
============

Original problem: 
original problem has 0 variables (0 bin, 0 int, 0 impl, 0 cont) and 77 constraints

presolving:
presolving (1 rounds: 1 fast, 1 medium, 1 exhaustive):
 0 deleted vars, 0 deleted constraints, 0 added constraints, 0 tightened bounds, 0 added holes, 0 changed sides, 0 changed coefficients
 0 implications, 0 cliques
presolved problem has 0 variables (0 bin, 0 int, 0 impl, 0 cont) and 77 constraints
     77 constraints of type <linear>
Presolving Time: 0.00

 time | node  | left  |LP iter|LP it/n|mem/heur|mdpt |vars |cons |rows |cuts |sepa|confs|strbr|  dualbound   | primalbound  |  gap   | compl. 
  0.0s|     1 |     0 |     1 |     - |   710k |   0 |   1 |  77 |  77 |   0 |  0 |   0 |   0 |      --      |      --      |    Inf | unknown
r 0.0s|     1 |     0 |   926 |     - |simplero|   0 | 660 |  77 |  77 |   0 |  0 |   0 |   0 |      --      | 1.978306e+01 |    Inf | unknown
r 0.0s|     1 |     0 |   967 |     - |simplero|   0 | 671 |  77 |  77 |   0 |  0 |   0 |   0 |      --      | 1.872267e+01 |    Inf | unknown
r 0.0s|     1 |     0 |  1025 |     - |simplero|   0 | 682 |  77 |  77 |   0 |  0 |   0 |   0 |      --      | 1.679295e+01 |    Inf | unknown
r 0.1s|     1 |     0 |  1066 |     - |simplero|   0 | 693 |  77 |  77 |   0 |  0 |   0 |   0 |      --      | 1.542469e+01 |    Inf | unknown
r 0.1s|     1 |     0 |  1115 |     - |simplero|   0 | 704 |  77 |  77 |   0 |  0 |   0 |   0 |      --      | 1.431862e+01 |    Inf | unknown
r 0.1s|     1 |     0 |  1173 |     - |simplero|   0 | 715 |  77 |  77 |   0 |  0 |   0 |   0 |      --      | 1.169995e+01 |    Inf | unknown
r 0.1s|     1 |     0 |  1220 |     - |simplero|   0 | 726 |  77 |  77 |   0 |  0 |   0 |   0 |      --      | 1.048209e+01 |    Inf | unknown
r 0.1s|     1 |     0 |  1280 |     - |simplero|   0 | 737 |  77 |  77 |   0 |  0 |   0 |   0 |      --      | 8.790476e+00 |    Inf | unknown
r 0.1s|     1 |     0 |  1328 |     - |simplero|   0 | 748 |  77 |  77 |   0 |  0 |   0 |   0 |      --      | 7.139133e+00 |    Inf | unknown
r 0.1s|     1 |     0 |  1336 |     - |simplero|   0 | 748 |  77 |  77 |   0 |  0 |   0 |   0 |      --      | 7.064680e+00 |    Inf | unknown
r 0.1s|     1 |     0 |  1349 |     - |simplero|   0 | 748 |  77 |  77 |   0 |  0 |   0 |   0 |      --      | 6.989811e+00 |    Inf | unknown
r 0.1s|     1 |     0 |  1352 |     - |simplero|   0 | 748 |  77 |  77 |   0 |  0 |   0 |   0 |      --      | 6.988913e+00 |    Inf | unknown
r 0.1s|     1 |     0 |  1403 |     - |simplero|   0 | 759 |  77 |  77 |   0 |  0 |   0 |   0 |      --      | 6.079993e+00 |    Inf | unknown
r 0.1s|     1 |     0 |  1412 |     - |simplero|   0 | 759 |  77 |  77 |   0 |  0 |   0 |   0 |      --      | 6.024906e+00 |    Inf | unknown
 time | node  | left  |LP iter|LP it/n|mem/heur|mdpt |vars |cons |rows |cuts |sepa|confs|strbr|  dualbound   | primalbound  |  gap   | compl. 
r 0.1s|     1 |     0 |  1418 |     - |simplero|   0 | 759 |  77 |  77 |   0 |  0 |   0 |   0 |      --      | 6.015181e+00 |    Inf | unknown
r 0.1s|     1 |     0 |  1456 |     - |simplero|   0 | 770 |  77 |  77 |   0 |  0 |   0 |   0 |      --      | 4.972405e+00 |    Inf | unknown
r 0.1s|     1 |     0 |  1482 |     - |simplero|   0 | 770 |  77 |  77 |   0 |  0 |   0 |   0 |      --      | 4.872086e+00 |    Inf | unknown
r 0.1s|     1 |     0 |  1521 |     - |simplero|   0 | 781 |  77 |  77 |   0 |  0 |   0 |   0 |      --      | 3.991048e+00 |    Inf | unknown
r 0.1s|     1 |     0 |  1524 |     - |simplero|   0 | 781 |  77 |  77 |   0 |  0 |   0 |   0 |      --      | 3.989264e+00 |    Inf | unknown
r 0.1s|     1 |     0 |  1555 |     - |simplero|   0 | 792 |  77 |  77 |   0 |  0 |   0 |   0 |      --      | 3.369638e+00 |    Inf | unknown
r 0.1s|     1 |     0 |  1564 |     - |simplero|   0 | 792 |  77 |  77 |   0 |  0 |   0 |   0 |      --      | 3.343719e+00 |    Inf | unknown
r 0.1s|     1 |     0 |  1566 |     - |simplero|   0 | 792 |  77 |  77 |   0 |  0 |   0 |   0 |      --      | 3.338234e+00 |    Inf | unknown
r 0.1s|     1 |     0 |  1567 |     - |simplero|   0 | 792 |  77 |  77 |   0 |  0 |   0 |   0 |      --      | 3.337953e+00 |    Inf | unknown
r 0.1s|     1 |     0 |  1589 |     - |simplero|   0 | 803 |  77 |  77 |   0 |  0 |   0 |   0 |      --      | 2.909391e+00 |    Inf | unknown
r 0.1s|     1 |     0 |  1598 |     - |simplero|   0 | 803 |  77 |  77 |   0 |  0 |   0 |   0 |      --      | 2.863224e+00 |    Inf | unknown
r 0.1s|     1 |     0 |  1624 |     - |simplero|   0 | 814 |  77 |  77 |   0 |  0 |   0 |   0 |      --      | 2.587262e+00 |    Inf | unknown
r 0.1s|     1 |     0 |  1639 |     - |simplero|   0 | 814 |  77 |  77 |   0 |  0 |   0 |   0 |      --      | 2.531004e+00 |    Inf | unknown
r 0.1s|     1 |     0 |  1643 |     - |simplero|   0 | 814 |  77 |  77 |   0 |  0 |   0 |   0 |      --      | 2.527219e+00 |    Inf | unknown
r 0.1s|     1 |     0 |  1678 |     - |simplero|   0 | 825 |  77 |  77 |   0 |  0 |   0 |   0 |      --      | 2.378972e+00 |    Inf | unknown
 time | node  | left  |LP iter|LP it/n|mem/heur|mdpt |vars |cons |rows |cuts |sepa|confs|strbr|  dualbound   | primalbound  |  gap   | compl. 
r 0.1s|     1 |     0 |  1681 |     - |simplero|   0 | 825 |  77 |  77 |   0 |  0 |   0 |   0 |      --      | 2.375683e+00 |    Inf | unknown
r 0.1s|     1 |     0 |  1704 |     - |simplero|   0 | 836 |  77 |  77 |   0 |  0 |   0 |   0 |      --      | 2.203209e+00 |    Inf | unknown
r 0.1s|     1 |     0 |  1732 |     - |simplero|   0 | 846 |  77 |  77 |   0 |  0 |   0 |   0 |      --      | 2.040881e+00 |    Inf | unknown
r 0.1s|     1 |     0 |  1733 |     - |simplero|   0 | 846 |  77 |  77 |   0 |  0 |   0 |   0 |      --      | 2.040496e+00 |    Inf | unknown
r 0.1s|     1 |     0 |  1735 |     - |simplero|   0 | 846 |  77 |  77 |   0 |  0 |   0 |   0 |      --      | 2.039858e+00 |    Inf | unknown
  0.1s|     1 |     0 |  1752 |     - |  4076k |   0 | 854 |  77 |  77 |   0 |  0 |   0 |   0 |      --      | 2.039858e+00 |    Inf | unknown
r 0.1s|     1 |     0 |  1752 |     - |simplero|   0 | 854 |  77 |  77 |   0 |  0 |   0 |   0 |      --      | 1.992908e+00 |    Inf | unknown
r 0.1s|     1 |     0 |  1780 |     - |simplero|   0 | 859 |  77 |  77 |   0 |  0 |   0 |   0 |      --      | 1.949941e+00 |    Inf | unknown
r 0.1s|     1 |     0 |  1798 |     - |simplero|   0 | 866 |  77 |  77 |   0 |  0 |   0 |   0 |      --      | 1.927971e+00 |    Inf | unknown
r 0.1s|     1 |     0 |  1804 |     - |simplero|   0 | 874 |  77 |  77 |   0 |  0 |   0 |   0 |      --      | 1.924528e+00 |    Inf | unknown
r 0.1s|     1 |     0 |  1815 |     - |simplero|   0 | 878 |  77 |  77 |   0 |  0 |   0 |   0 |      --      | 1.914286e+00 |    Inf | unknown
r 0.1s|     1 |     0 |  1823 |     - |simplero|   0 | 880 |  77 |  77 |   0 |  0 |   0 |   0 |      --      | 1.909091e+00 |    Inf | unknown
r 0.1s|     1 |     0 |  1832 |     - |simplero|   0 | 883 |  77 |  77 |   0 |  0 |   0 |   0 |      --      | 1.908257e+00 |    Inf | unknown
  0.1s|     1 |     0 |  1833 |     - |  4229k |   0 | 884 |  77 |  77 |   0 |  0 |   0 |   0 | 1.908257e+00 | 1.908257e+00 |   0.00%| unknown
  0.1s|     1 |     0 |  1833 |     - |  4229k |   0 | 884 |  77 |  77 |   0 |  0 |   0 |   0 | 1.908257e+00 | 1.908257e+00 |   0.00%| unknown

SCIP Status        : problem is solved [optimal solution found]
Solving Time (sec) : 0.10
Solving Nodes      : 1
Primal Bound       : +1.90825688073394e+00 (41 solutions)
Dual Bound         : +1.90825688073394e+00
Gap                : 0.00 %

written transformed problem to file <results_rootrelaxation/bin012_060_049.srr.lp>
written transformed problem to file <results_rootrelaxation/bin012_060_049.srr.cip>


SCIP version 8.0.3.5 [precision: 8 byte] [memory: block] [mode: optimized] [LP solver: Soplex 6.0.1.3] [GitHash: 438792519e]
Copyright (c) 2002-2023 Zuse Institute Berlin (ZIB)

External libraries: 
  Readline 8.1         GNU library for command line editing (gnu.org/s/readline)
  Soplex 6.0.1.3       Linear Programming Solver developed at Zuse Institute Berlin (soplex.zib.de) [GitHash: 713be0fe]
  CppAD 20180000.0     Algorithmic Differentiation of C++ algorithms developed by B. Bell (github.com/coin-or/CppAD)
  ZLIB 1.2.11          General purpose compression library by J. Gailly and M. Adler (zlib.net)
  bliss 0.77           Computing Graph Automorphism Groups by T. Junttila and P. Kaski (www.tcs.hut.fi/Software/bliss/)

user parameter file <scip.set> not found - using default parameters

srr/relaxation = TRUE

read problem <instances/bin012_060_049.srr>
============

Original problem: 
original problem has 0 variables (0 bin, 0 int, 0 impl, 0 cont) and 77 constraints

presolving:
presolving (1 rounds: 1 fast, 1 medium, 1 exhaustive):
 0 deleted vars, 0 deleted constraints, 0 added constraints, 0 tightened bounds, 0 added holes, 0 changed sides, 0 changed coefficients
 0 implications, 0 cliques
presolved problem has 0 variables (0 bin, 0 int, 0 impl, 0 cont) and 77 constraints
     77 constraints of type <linear>
Presolving Time: 0.00

 time | node  | left  |LP iter|LP it/n|mem/heur|mdpt |vars |cons |rows |cuts |sepa|confs|strbr|  dualbound   | primalbound  |  gap   | compl. 
  0.0s|     1 |     0 |     1 |     - |   710k |   0 |   1 |  77 |  77 |   0 |  0 |   0 |   0 |      --      |      --      |    Inf | unknown
r 0.0s|     1 |     0 |   926 |     - |simplero|   0 | 660 |  77 |  77 |   0 |  0 |   0 |   0 |      --      | 1.978306e+01 |    Inf | unknown
r 0.0s|     1 |     0 |   967 |     - |simplero|   0 | 671 |  77 |  77 |   0 |  0 |   0 |   0 |      --      | 1.872267e+01 |    Inf | unknown
r 0.0s|     1 |     0 |  1025 |     - |simplero|   0 | 682 |  77 |  77 |   0 |  0 |   0 |   0 |      --      | 1.679295e+01 |    Inf | unknown
r 0.0s|     1 |     0 |  1066 |     - |simplero|   0 | 693 |  77 |  77 |   0 |  0 |   0 |   0 |      --      | 1.542469e+01 |    Inf | unknown
r 0.0s|     1 |     0 |  1115 |     - |simplero|   0 | 704 |  77 |  77 |   0 |  0 |   0 |   0 |      --      | 1.431862e+01 |    Inf | unknown
r 0.1s|     1 |     0 |  1173 |     - |simplero|   0 | 715 |  77 |  77 |   0 |  0 |   0 |   0 |      --      | 1.169995e+01 |    Inf | unknown
r 0.1s|     1 |     0 |  1220 |     - |simplero|   0 | 726 |  77 |  77 |   0 |  0 |   0 |   0 |      --      | 1.048209e+01 |    Inf | unknown
r 0.1s|     1 |     0 |  1280 |     - |simplero|   0 | 737 |  77 |  77 |   0 |  0 |   0 |   0 |      --      | 8.790476e+00 |    Inf | unknown
r 0.1s|     1 |     0 |  1328 |     - |simplero|   0 | 748 |  77 |  77 |   0 |  0 |   0 |   0 |      --      | 7.139133e+00 |    Inf | unknown
r 0.1s|     1 |     0 |  1336 |     - |simplero|   0 | 748 |  77 |  77 |   0 |  0 |   0 |   0 |      --      | 7.064680e+00 |    Inf | unknown
r 0.1s|     1 |     0 |  1349 |     - |simplero|   0 | 748 |  77 |  77 |   0 |  0 |   0 |   0 |      --      | 6.989811e+00 |    Inf | unknown
r 0.1s|     1 |     0 |  1352 |     - |simplero|   0 | 748 |  77 |  77 |   0 |  0 |   0 |   0 |      --      | 6.988913e+00 |    Inf | unknown
r 0.1s|     1 |     0 |  1403 |     - |simplero|   0 | 759 |  77 |  77 |   0 |  0 |   0 |   0 |      --      | 6.079993e+00 |    Inf | unknown
r 0.1s|     1 |     0 |  1412 |     - |simplero|   0 | 759 |  77 |  77 |   0 |  0 |   0 |   0 |      --      | 6.024906e+00 |    Inf | unknown
 time | node  | left  |LP iter|LP it/n|mem/heur|mdpt |vars |cons |rows |cuts |sepa|confs|strbr|  dualbound   | primalbound  |  gap   | compl. 
r 0.1s|     1 |     0 |  1418 |     - |simplero|   0 | 759 |  77 |  77 |   0 |  0 |   0 |   0 |      --      | 6.015181e+00 |    Inf | unknown
r 0.1s|     1 |     0 |  1456 |     - |simplero|   0 | 770 |  77 |  77 |   0 |  0 |   0 |   0 |      --      | 4.972405e+00 |    Inf | unknown
r 0.1s|     1 |     0 |  1482 |     - |simplero|   0 | 770 |  77 |  77 |   0 |  0 |   0 |   0 |      --      | 4.872086e+00 |    Inf | unknown
r 0.1s|     1 |     0 |  1521 |     - |simplero|   0 | 781 |  77 |  77 |   0 |  0 |   0 |   0 |      --      | 3.991048e+00 |    Inf | unknown
r 0.1s|     1 |     0 |  1524 |     - |simplero|   0 | 781 |  77 |  77 |   0 |  0 |   0 |   0 |      --      | 3.989264e+00 |    Inf | unknown
r 0.1s|     1 |     0 |  1555 |     - |simplero|   0 | 792 |  77 |  77 |   0 |  0 |   0 |   0 |      --      | 3.369638e+00 |    Inf | unknown
r 0.1s|     1 |     0 |  1564 |     - |simplero|   0 | 792 |  77 |  77 |   0 |  0 |   0 |   0 |      --      | 3.343719e+00 |    Inf | unknown
r 0.1s|     1 |     0 |  1566 |     - |simplero|   0 | 792 |  77 |  77 |   0 |  0 |   0 |   0 |      --      | 3.338234e+00 |    Inf | unknown
r 0.1s|     1 |     0 |  1567 |     - |simplero|   0 | 792 |  77 |  77 |   0 |  0 |   0 |   0 |      --      | 3.337953e+00 |    Inf | unknown
r 0.1s|     1 |     0 |  1589 |     - |simplero|   0 | 803 |  77 |  77 |   0 |  0 |   0 |   0 |      --      | 2.909391e+00 |    Inf | unknown
r 0.1s|     1 |     0 |  1598 |     - |simplero|   0 | 803 |  77 |  77 |   0 |  0 |   0 |   0 |      --      | 2.863224e+00 |    Inf | unknown
r 0.1s|     1 |     0 |  1624 |     - |simplero|   0 | 814 |  77 |  77 |   0 |  0 |   0 |   0 |      --      | 2.587262e+00 |    Inf | unknown
r 0.1s|     1 |     0 |  1639 |     - |simplero|   0 | 814 |  77 |  77 |   0 |  0 |   0 |   0 |      --      | 2.531004e+00 |    Inf | unknown
r 0.1s|     1 |     0 |  1643 |     - |simplero|   0 | 814 |  77 |  77 |   0 |  0 |   0 |   0 |      --      | 2.527219e+00 |    Inf | unknown
r 0.1s|     1 |     0 |  1678 |     - |simplero|   0 | 825 |  77 |  77 |   0 |  0 |   0 |   0 |      --      | 2.378972e+00 |    Inf | unknown
 time | node  | left  |LP iter|LP it/n|mem/heur|mdpt |vars |cons |rows |cuts |sepa|confs|strbr|  dualbound   | primalbound  |  gap   | compl. 
r 0.1s|     1 |     0 |  1681 |     - |simplero|   0 | 825 |  77 |  77 |   0 |  0 |   0 |   0 |      --      | 2.375683e+00 |    Inf | unknown
r 0.1s|     1 |     0 |  1704 |     - |simplero|   0 | 836 |  77 |  77 |   0 |  0 |   0 |   0 |      --      | 2.203209e+00 |    Inf | unknown
r 0.1s|     1 |     0 |  1732 |     - |simplero|   0 | 846 |  77 |  77 |   0 |  0 |   0 |   0 |      --      | 2.040881e+00 |    Inf | unknown
r 0.1s|     1 |     0 |  1733 |     - |simplero|   0 | 846 |  77 |  77 |   0 |  0 |   0 |   0 |      --      | 2.040496e+00 |    Inf | unknown
r 0.1s|     1 |     0 |  1735 |     - |simplero|   0 | 846 |  77 |  77 |   0 |  0 |   0 |   0 |      --      | 2.039858e+00 |    Inf | unknown
  0.1s|     1 |     0 |  1752 |     - |  4076k |   0 | 854 |  77 |  77 |   0 |  0 |   0 |   0 |      --      | 2.039858e+00 |    Inf | unknown
r 0.1s|     1 |     0 |  1752 |     - |simplero|   0 | 854 |  77 |  77 |   0 |  0 |   0 |   0 |      --      | 1.992908e+00 |    Inf | unknown
r 0.1s|     1 |     0 |  1780 |     - |simplero|   0 | 859 |  77 |  77 |   0 |  0 |   0 |   0 |      --      | 1.949941e+00 |    Inf | unknown
r 0.1s|     1 |     0 |  1798 |     - |simplero|   0 | 866 |  77 |  77 |   0 |  0 |   0 |   0 |      --      | 1.927971e+00 |    Inf | unknown
r 0.1s|     1 |     0 |  1804 |     - |simplero|   0 | 874 |  77 |  77 |   0 |  0 |   0 |   0 |      --      | 1.924528e+00 |    Inf | unknown
r 0.1s|     1 |     0 |  1815 |     - |simplero|   0 | 878 |  77 |  77 |   0 |  0 |   0 |   0 |      --      | 1.914286e+00 |    Inf | unknown
r 0.1s|     1 |     0 |  1823 |     - |simplero|   0 | 880 |  77 |  77 |   0 |  0 |   0 |   0 |      --      | 1.909091e+00 |    Inf | unknown
r 0.1s|     1 |     0 |  1832 |     - |simplero|   0 | 883 |  77 |  77 |   0 |  0 |   0 |   0 |      --      | 1.908257e+00 |    Inf | unknown
  0.1s|     1 |     0 |  1833 |     - |  4229k |   0 | 884 |  77 |  77 |   0 |  0 |   0 |   0 | 1.908257e+00 | 1.908257e+00 |   0.00%| unknown
  0.1s|     1 |     0 |  1833 |     - |  4229k |   0 | 884 |  77 |  77 |   0 |  0 |   0 |   0 | 1.908257e+00 | 1.908257e+00 |   0.00%| unknown

SCIP Status        : problem is solved [optimal solution found]
Solving Time (sec) : 0.09
Solving Nodes      : 1
Primal Bound       : +1.90825688073394e+00 (41 solutions)
Dual Bound         : +1.90825688073394e+00
Gap                : 0.00 %

written transformed problem to file <results_rootrelaxation/bin012_060_049.srr.lp>
written transformed problem to file <results_rootrelaxation/bin012_060_049.srr.cip>

written solution information to file <results_rootrelaxation/bin012_060_049.srr.sol>



